CMD:
./solvers/bin/cadical --plain --no-reduce -t 1600 ./data/cnfs//gen44/gen44.49.cnf

c --- [ banner ] -------------------------------------------------------------
c 
c CaDiCaL SAT Solver
c Copyright (c) 2016-2024
c A. Biere, M. Fleury, N. Froleyks, K. Fazekas, F. Pollitt, T. Faller
c JKU Linz, University of Freiburg, TU Wien
c 
c Version 2.1.3 5296d3d2a9bf48c154ab2acb5e44625776d821bf
c g++ (Gentoo 12.3.1_p20230526 p2) 12.3.1 20230526 -Wall -Wextra -O3 -DNDEBUG
c Sat Aug 9 07:26:21 PDT 2025 Linux cedar2.int.cedar.computecanada.ca 5.14.0-362.24.2.el9_3.x86_64 x86_64
c 
c --- [ limit ] --------------------------------------------------------------
c 
c setting time limit to 1600 seconds real time (due to '-t 1600')
c 
c --- [ parsing input ] ------------------------------------------------------
c 
c reading DIMACS file from './data/cnfs//gen44/gen44.49.cnf'
c opening file to read './data/cnfs//gen44/gen44.49.cnf'
c found 'p cnf 247977 701254' header
c parsed 701254 clauses in 0.12 seconds process time
c 
c --- [ options ] ------------------------------------------------------------
c 
c   --compact=false                (different from default 'true')
c   --decompose=false              (different from default 'true')
c   --deduplicate=false            (different from default 'true')
c   --elim=false                   (different from default 'true')
c   --probe=false                  (different from default 'true')
c   --reduce=false                 (different from default 'true')
c   --subsume=false                (different from default 'true')
c   --ternary=false                (different from default 'true')
c   --transred=false               (different from default 'true')
c   --vivify=false                 (different from default 'true')
c 
c --- [ solving ] ------------------------------------------------------------
c 
c time measured in process time since initialization
c 
c  seconds   reductions  redundant  irredundant
c          MB    restarts       trail       variables
c           level   conflicts       glue          remaining
c 
c *  0.12 114  0 0   0    0    0  0% 0 701086 247546 100%
c {  0.16 118  0 0   0    0    0  0% 0 701086 247546 100%
c i  0.22 118 194 0   0  512  256  2% 1 701086 247285 100%
c }  1.28 121 917 0  94 1001  745 28% 2 701086 247285 100%
c [  1.28 121  0 0  94 1001  745  0% 0 701086 247285 100%
c O  1.32 121 13349 0  94 1002  746 100% 5 701086 247285 100%
c i  1.34 121 13504 0  94 1349  920 99% 2 701086 246754 100%
c ]  1.49 121 8774 0  95 3002 2287 69% 36 701086 246754 100%
c {  1.49 121 917 0  95 3002 2287 28% 2 701086 246754 100%
c F  1.50 122 916 0  96 3003 2288 28% 2 701086 246754 100%
c #  2.27 123 417 0 375 6005 4888 27% 4 701086 246754 100%
c }  2.33 123 394 0 383 7003 5812 31% 6 701086 246754 100%
c [  2.33 123 8774 0 383 7003 5812 69% 36 701086 246754 100%
c I  3.06 123 4273 0 385 10006 8418 47% 16 701086 246754 100%
c ]  4.95 124 2460 0 388 15003 11848 37% 13 701086 246754 100%
c {  4.95 124 394 0 388 15003 11848 31% 6 701086 246754 100%
c B  4.97 124 394 0 390 15009 11853 31% 6 701086 246754 100%
c W  7.91 126 319 0 1307 21010 16921 26% 8 695255 246754 100%
c F 15.60 126 325 0 2431 28012 23587 30% 10 695255 246754 100%
c } 16.06 126 335 0 2442 31004 26163 29% 10 695255 246754 100%
c 
c  seconds     reductions     redundant   irredundant
c          MB      restarts          trail        variables
c            level      conflicts        glue           remaining
c 
c [ 16.06 126 2460 0 2442 31004 26163 37% 13 695255 246754 100%
c B 21.22 127 1719 0 2444 36046 30951 32% 12 695255 246754 100%
c W 61.85 129 1143 0 2449 45047 39132 43% 37 695255 246754 100%
c O 99.44 134 836 0 2450 55049 48675 49% 55 695255 246754 100%
c ] 102.60 135 723 0 2456 63004 56044 42% 45 695255 246754 100%
c { 102.60 135 335 0 2456 63004 56044 29% 10 695255 246754 100%
c B 103.35 136 314 0 2609 66065 58863 27% 9 695255 246754 100%
c W 107.20 138 282 0 3019 78068 69333 26% 8 695255 246754 100%
c i 110.90 139 284 0 3585 83343 74109 26% 8 695255 246751 100%
c # 118.11 141 283 0 4092 91069 81018 27% 8 695255 246751 100%
c B 122.74 144 267 0 4763 105070 93220 26% 8 695255 246751 100%
c W 132.71 189 270 0 6237 120071 106995 26% 8 695246 246751 100%
c i 133.11 190 265 0 6288 123814 110639 25% 8 695246 246489 99%
c } 134.88 190 267 0 6685 127004 113541 25% 8 695246 246489 99%
c [ 134.88 190 723 0 6685 127004 113541 42% 45 695246 246489 99%
c B 140.13 190 624 0 6689 136073 121751 41% 43 695246 246489 99%
c W 204.96 194 533 0 6695 153074 138169 47% 36 693948 246489 99%
c I 225.46 196 432 0 6697 171075 155005 43% 29 693948 246489 99%
c B 251.91 196 365 0 6708 190076 172054 40% 38 693948 246489 99%
c W 282.71 196 321 0 6716 210078 190940 40% 43 693948 246489 99%
c 
c  seconds     reductions      redundant    irredundant
c           MB     restarts            trail        variables
c             level     conflicts          glue           remaining
c 
c O 299.51 196 274 0 6725 231112 210792 34% 39 693948 246489 99%
c B 304.08 196 239 0 6727 253113 230020 30% 34 693948 246489 99%
c ] 304.70 196 250 0 6727 255005 231678 30% 33 693948 246489 99%
c { 304.70 196 267 0 6727 255005 231678 25% 8 693948 246489 99%
... skipped 29 lines ...
c O 786.57 313 143 0 32192 903164 808614 27% 41 690081 245712 99%
c B 822.84 323 158 0 32212 946166 848296 28% 35 690081 245712 99%
c W 849.14 333 140 0 32217 990168 888389 25% 32 690081 245712 99%
c ] 854.53 344 135 0 32224 1023005 913485 25% 41 690081 245712 99%
c { 854.53 344 202 0 32224 1023005 913485 21% 9 690081 245712 99%
c # 864.98 356 198 0 33767 1035169 924719 21% 10 690081 245712 99%
c B 898.18 368 184 0 37586 1081172 966784 20% 10 690081 245712 99%
c W 919.51 380 167 0 39893 1128174 1009712 18% 9 690081 245712 99%
c i 929.99 388 162 0 41131 1150119 1029589 17% 9 690081 245711 99%
c F 943.01 396 150 0 42955 1176176 1052585 16% 9 690081 245711 99%
c B 978.45 419 150 0 49021 1225178 1096455 16% 10 690081 245711 99%
c W 1013.55 536 143 0 52879 1275179 1140864 16% 10 690078 245711 99%
c 
c   seconds     reductions         redundant    irredundant
c            MB      restarts              trail        variables
c              level       conflicts           glue           remaining
c 
c # 1051.66 536 142 0 58957 1326181 1186498 16% 10 690078 245711 99%
c B 1077.96 536 133 0 61201 1378182 1232349 15% 10 690078 245711 99%
c W 1107.25 537 128 0 63814 1431187 1279617 14% 9 690078 245711 99%
c i 1112.73 537 127 0 64766 1439116 1286423 14% 9 690078 245188 99%
c F 1157.46 539 130 0 72833 1485188 1328199 15% 10 690078 245188 99%
c B 1194.59 540 128 0 78379 1540190 1376673 15% 11 690078 245188 99%
c W 1229.74 565 122 0 82400 1596191 1421802 14% 10 687481 245188 99%
c # 1258.57 566 115 0 86331 1653194 1472699 13% 10 687481 245188 99%
c B 1286.57 566 104 0 91638 1711195 1524314 13% 10 687481 245188 99%
c W 1320.24 566 99 0 98967 1770198 1576357 12% 10 687481 245188 99%
c F 1349.71 568 87 0 104543 1830199 1626203 12% 10 687481 245188 99%
c B 1380.68 568 86 0 110629 1891200 1678829 12% 11 687481 245188 99%
c W 1410.32 568 85 0 116501 1953201 1732878 12% 11 687481 245188 99%
c # 1428.89 568 72 0 117664 2016203 1783664 11% 11 687481 245188 99%
c i 1434.88 568 71 0 117967 2031897 1796711 11% 10 687481 245187 99%
c } 1439.62 568 69 0 118223 2047005 1809110 11% 10 687481 245187 99%
c [ 1439.62 568 135 0 118223 2047005 1809110 25% 41 687481 245187 99%
c I 1458.30 570 108 0 118238 2080204 1835468 21% 33 687481 245187 99%
c B 1499.84 571 91 0 118262 2145205 1888578 15% 23 687481 245187 99%
c W 1539.46 612 66 0 118279 2211206 1940801 12% 17 687478 245187 99%
c 
c   seconds    reductions          redundant    irredundant
c            MB     restarts               trail        variables
c             level        conflicts           glue           remaining
c 
c O 1591.34 612 51 0 118280 2278207 1993938 11% 13 687478 245187 99%
c i 1591.53 612 51 0 118280 2278274 1993945 11% 13 687478 244930 99%
c ] 1592.26 612 51 0 118280 2279114 1994704 11% 13 687478 244930 99%
c ? 1592.26 612 51 0 118280 2279114 1994704 11% 13 687478 244930 99%
c 
c --- [ result ] -------------------------------------------------------------
c 
c UNKNOWN
c 
c --- [ run-time profiling ] -------------------------------------------------
c 
c process time taken by individual solving procedures
c (percentage relative to process time for solving)
c 
c      1592.14  100.00% search
c       796.15   50.01% stable
c       790.15   49.63% unstable
c         5.79    0.36% walk
c         0.12    0.01% parse
c         0.04    0.00% lucky
c         0.00    0.00% simplify
c   =================================
c      1592.14   99.99% solve
c 
c last line shows process time for solving
c (percentage relative to total process time)
c 
c --- [ statistics ] ---------------------------------------------------------
c 
c chronological:           1812250        79.52 %  of conflicts
c conflicts:               2279114      1431.48    per second
c decisions:              69418240     43600.71    per second
c fixed:                      3038         1.23 %  of all variables
c learned:                 2220485        97.43 %  per conflict
c learned_lits:           93262772       100.00 %  learned literals
c minimized:                     0         0.00 %  learned literals
c shrunken:               36125714        38.74 %  learned literals
c minishrunken:            6688941         7.17 %  learned literals
c otfs:                      17726         0.78 %  of conflict
c propagations:        12305964415         7.73 M  per second
c rephased:                     67     34016.63    interval
c restarts:                 118280        19.27    interval
c stabilizing:                   6        40.06 %  of conflicts
c subsumed:                 223254         7.64 %  of all clauses
c strengthened:              15949         0.55 %  of all clauses
c walked:                       21    108529.24    interval
c 
c seconds are measured in process time for solving
c 
c --- [ resources ] ----------------------------------------------------------
c 
c total process time since initialization:      1592.26    seconds
c total real time since initialization:         1600.00    seconds
c maximum resident set size of process:          809.06    MB
c 
c --- [ shutting down ] ------------------------------------------------------
c 
c exit 0
